Translating instance to solver...

GLPSOL: GLPK LP/MIP Solver, v4.65
Parameter(s) specified in the command line:
 --tmlim 10 --mipgap 0.001 --write C:\Users\LUCASP~1\AppData\Local\Temp\tmpi2bkv7fo.glpk.raw
 --wglp C:\Users\LUCASP~1\AppData\Local\Temp\tmpd2psn5gi.glpk.glp --cpxlp
 C:\Users\LUCASP~1\AppData\Local\Temp\tmp9bxd644k.pyomo.lp
Reading problem data from 'C:\Users\LUCASP~1\AppData\Local\Temp\tmp9bxd644k.pyomo.lp'...
C:\Users\LUCASP~1\AppData\Local\Temp\tmp9bxd644k.pyomo.lp:146858: warning: lower bound of variable 'x1' redefined
C:\Users\LUCASP~1\AppData\Local\Temp\tmp9bxd644k.pyomo.lp:146858: warning: upper bound of variable 'x1' redefined
24837 rows, 13713 columns, 58533 non-zeros
13712 integer variables, 13680 of which are binary
160538 lines were read
Writing problem data to 'C:\Users\LUCASP~1\AppData\Local\Temp\tmpd2psn5gi.glpk.glp'...
112829 lines were written
GLPK Integer Optimizer, v4.65
24837 rows, 13713 columns, 58533 non-zeros
13712 integer variables, 13680 of which are binary
Preprocessing...
160 hidden packing inequaliti(es) were detected
3640 hidden covering inequaliti(es) were detected
100 constraint coefficient(s) were reduced
13609 rows, 5742 columns, 34403 non-zeros
5742 integer variables, 5711 of which are binary
Scaling...
 A: min|aij| =  1.000e+00  max|aij| =  3.100e+01  ratio =  3.100e+01
GM: min|aij| =  5.840e-01  max|aij| =  1.712e+00  ratio =  2.932e+00
EQ: min|aij| =  3.419e-01  max|aij| =  1.000e+00  ratio =  2.925e+00
2N: min|aij| =  2.500e-01  max|aij| =  1.625e+00  ratio =  6.500e+00
Constructing initial basis...
Size of triangular part is 13609
Solving LP relaxation...
GLPK Simplex Optimizer, v4.65
13609 rows, 5742 columns, 34403 non-zeros
      0: obj =   0.000000000e+00 inf =   6.194e+01 (105)
    468: obj =   2.933564000e+00 inf =   2.560e-15 (0) 2
Perturbing LP to avoid stalling [906]...
Removing LP perturbation [1140]...
*  1140: obj =   6.117820000e-01 inf =   5.046e-18 (0) 4
OPTIMAL LP SOLUTION FOUND
Integer optimization begins...
Long-step dual simplex will be used
+  1140: mip =     not found yet >=              -inf        (1; 0)
+  2027: mip =     not found yet >=   6.117820000e-01        (27; 1)
+  2275: mip =     not found yet >=   6.117820000e-01        (38; 1)
TIME LIMIT EXCEEDED; SEARCH TERMINATED
Time used:   11.6 secs
Memory used: 23.7 Mb (24897138 bytes)
Writing MIP solution to 'C:\Users\LUCASP~1\AppData\Local\Temp\tmpi2bkv7fo.glpk.raw'...
38559 lines were written

Time in solver (for this epsilon): 12.3414306640625 s
Elapsed time (for this epsilon): 16.202048301696777 s


Total elapsed time since execution of first epsilon: 268.25171756744385 s


NO SOLUTION FOUND FOR THIS INSTANCE!
